20	5
0	3	9	1	2
1	1	14
2	1	7
3	1	17
4	1	10
5	1	12
6	1	8
7	1	12
8	1	11
9	1	15
10	1	13
11	1	20
12	1	19
13	1	5
14	1	3
15	1	21
16	1	6
17	1	4
18	1	16
19	0
20	1	21
21	0
0	0	0	0	0	0	0
1	4	4	5	4	3	3
2	3	5	4	1	2	4
3	10	2	2	4	5	1
4	10	3	3	5	4	2
5	8	4	1	3	2	2
6	4	5	1	2	4	4
7	7	1	3	5	1	1
8	2	2	5	5	2	2
9	5	3	2	5	1	2
10	5	2	4	2	4	1
11	7	5	4	5	5	4
12	9	4	3	5	1	2
13	10	1	3	1	5	3
14	2	3	2	5	5	1
15	8	2	4	5	5	3
16	10	2	2	5	3	2
17	1	5	5	4	5	2
18	8	4	1	1	5	5
19	3	5	4	4	5	3
20	2	3	2	2	4	5
21	0	0	0	0	0	0
7	7	8	6	6
